 %nprocshared=40
 %mem=100GB
 # opt=(calcfc,ts,modredundant,noeigentest) freq 6-31g(d) scrf=(smd,sol

cat6_s_right_u

0 1
C	2.889811	-0.159401	0.935125
O	2.209240	0.855506	1.620067
H	1.282591	0.904467	1.263698
C	3.165888	-1.343182	1.855707
C	3.011797	-1.210159	3.210585
C	3.298485	-2.307189	4.063064
N	3.705711	-3.476782	3.639309
C	3.841393	-3.645510	2.292287
C	3.582059	-2.614434	1.344543
C	3.719283	-2.903994	-0.032622
C	4.108493	-4.157303	-0.460966
C	4.385480	-5.178964	0.483528
C	4.249096	-4.918052	1.823318
H	4.443477	-5.685965	2.565254
H	4.693773	-6.164962	0.156377
O	4.201678	-4.330237	-1.800244
C	4.531566	-5.619289	-2.286657
H	3.795772	-6.365967	-1.968056
H	4.515636	-5.540730	-3.373848
H	5.532696	-5.926146	-1.962329
H	3.488381	-2.165685	-0.793774
H	3.183322	-2.190946	5.139103
H	2.664444	-0.270001	3.623729
H	2.275160	-0.524805	0.102558
C	4.251953	0.360929	0.408392
H	4.850082	-0.500997	0.099897
C	5.004448	1.197921	1.468060
H	4.441008	1.167494	2.403689
H	5.988437	0.758773	1.651583
C	5.146476	2.654016	1.002403
C	6.057437	2.716854	-0.229744
C	7.534953	2.541864	0.015905
C	8.139045	2.490528	1.199301
H	9.216369	2.375898	1.270042
H	7.598254	2.567928	2.138828
H	8.140678	2.463983	-0.887895
H	5.918452	3.697311	-0.705544
C	5.569102	1.638995	-1.221124
H	5.542567	1.988613	-2.253104
H	6.181124	0.733205	-1.167607
N	4.156804	1.197248	-0.877709
C	3.297476	2.426780	-0.661639
H	2.264775	2.083565	-0.591456
H	3.408055	3.024234	-1.569371
C	3.768442	3.182445	0.589656
H	3.051862	3.033600	1.397869
H	3.822046	4.250614	0.361051
C	3.618582	0.363331	-2.007140
H	2.745263	-0.179002	-1.650788
H	4.404986	-0.340658	-2.292097
H	5.550154	3.268683	1.810836
C	0.291379	4.619890	0.196829
C	0.204033	3.338372	0.700690
C	-0.159713	2.244101	-0.124741
C	-0.480924	2.508301	-1.478285
C	-0.393729	3.794020	-1.982696
C	0.002770	4.839047	-1.151228
H	0.574570	5.454817	0.827167
H	0.410210	3.140983	1.748501
H	-0.798347	1.697677	-2.121734
H	-0.630619	4.001886	-3.019828
N	0.112190	6.178657	-1.693026
O	-0.159707	6.350147	-2.873214
O	0.478994	7.075249	-0.945653
O	-0.136254	1.035140	0.397666
C	-0.406928	-1.434026	0.494316
N	-1.808559	-1.337399	0.892991
C	-2.382434	-0.697595	-0.040988
C	-3.822002	-0.337543	-0.035063
C	-4.302803	0.424038	1.028584
C	-5.652307	0.751676	1.098331
C	-6.534263	0.322899	0.101957
C	-6.051658	-0.440630	-0.969079
C	-4.693940	-0.769711	-1.033715
Cl	-4.084163	-1.755234	-2.311131
Cl	-7.131220	-0.981970	-2.199426
Cl	-8.205775	0.733531	0.188627
Cl	-6.216887	1.716261	2.420247
C	-3.321525	0.979465	2.035787
O	-2.645104	1.946669	1.795172
O	-3.324679	0.283634	3.163359
C	-2.355147	0.687803	4.166883
C	-2.842238	0.089244	5.470496
H	-2.864400	-1.002821	5.403598
H	-2.168183	0.374051	6.283552
H	-3.847663	0.445550	5.710746
C	-0.976113	0.198523	3.754388
H	-0.238597	0.514054	4.499846
H	-0.969345	-0.894758	3.692499
H	-0.693989	0.611499	2.780785
H	-2.370054	1.780900	4.212158
O	-1.638276	-0.254383	-1.089296
C	-0.294794	-0.470747	-0.693471
O	0.594368	-0.438257	-1.542522
H	0.233687	-1.107267	1.319443
C	-0.014603	-2.868023	0.100046
H	-0.006739	-3.469520	1.014712
H	1.014938	-2.827789	-0.273609
C	-0.913582	-3.514196	-0.928499
C	-2.003671	-4.291121	-0.524021
C	-2.815013	-4.924093	-1.461260
C	-2.554490	-4.777806	-2.822229
C	-1.484892	-3.987275	-3.237174
C	-0.670284	-3.360854	-2.296324
H	0.165921	-2.746945	-2.619794
H	-1.277465	-3.864266	-4.296360
H	-3.184235	-5.273711	-3.555137
H	-3.652450	-5.530557	-1.128878
H	-2.208156	-4.404234	0.537888
C	3.235365	1.216618	-3.225127
N	1.926256	1.175890	-3.508645
H	1.259133	0.665129	-2.928176
H	1.591295	1.712324	-4.299173
O	4.069060	1.857013	-3.852460

